
(set-logic ALL) 

(declare-datatype MyList ((Nil) (Cons (head Real) (tail MyList)) )) 
(declare-fun l0 () MyList) 
(declare-fun l1 () MyList) 
(declare-fun l2 () MyList) 
(declare-fun l3 () MyList) 
(declare-fun i0 () Real) 
(declare-fun i1 () Real) 
(assert (and (= l0 l0) (= l1 l3) (is-Nil Nil)) )
(assert (not (= l0 Nil)) )
(assert (is-Nil Nil) )
(assert (= l1 l0) )
(assert (and (= l0 Nil) (= l1 Nil) (is-Cons l3)) )
(assert (and (is-Nil l1) (= l1 Nil) (= l1 Nil) (is-Cons Nil)) )
(assert (is-Nil Nil) )
(assert (is-Cons Nil) )
(check-sat)
